min: c;

c = 3.82117990224709 * u4_t1_h1 + 3.56282859610297 * u4_t1_h2 + 2.9338399674504 * u4_t1_h3 + 3.01906897361391 * u4_t1_h4 + 3.01906897361391 * u4_t10_h4 + 3.4657834523576 * u4_t1_h5 + 3.4657834523576 * u4_t10_h5 + 3.94135945152952 * u4_t1_h6 + 3.94135945152952 * u4_t10_h6 + 4.02827939713722 * u4_t1_h7 + 4.02827939713722 * u4_t10_h7 + 5.259208716229 * u4_t1_h8 + 5.259208716229 * u4_t9_h8 + 5.259208716229 * u4_t10_h8 + 5.17423015243256 * u4_t9_h9 + 5.17423015243256 * u4_t10_h9 + 5.85443448479517 * u4_t9_h10 + 5.85443448479517 * u4_t10_h10 + 4.27958852589422 * u4_t2_h11 + 4.27958852589422 * u4_t4_h11 + 4.27958852589422 * u4_t9_h11 + 4.27958852589422 * u4_t10_h11 + 6.33569055348938 * u4_t2_h12 + 6.33569055348938 * u4_t3_h12 + 6.33569055348938 * u4_t4_h12 + 6.33569055348938 * u4_t8_h12 + 6.33569055348938 * u4_t9_h12 + 6.33569055348938 * u4_t10_h12 + 4.56019555535156 * u4_t2_h13 + 4.56019555535156 * u4_t3_h13 + 4.56019555535156 * u4_t4_h13 + 4.56019555535156 * u4_t8_h13 + 4.56019555535156 * u4_t9_h13 + 5.353872225678 * u4_t2_h14 + 5.353872225678 * u4_t3_h14 + 5.353872225678 * u4_t4_h14 + 5.353872225678 * u4_t8_h14 + 5.353872225678 * u4_t9_h14 + 6.62533815586947 * u4_t2_h15 + 6.62533815586947 * u4_t3_h15 + 6.62533815586947 * u4_t4_h15 + 6.62533815586947 * u4_t8_h15 + 6.62533815586947 * u4_t9_h15 + 6.32352885758841 * u4_t2_h16 + 6.32352885758841 * u4_t3_h16 + 6.32352885758841 * u4_t4_h16 + 6.32352885758841 * u4_t5_h16 + 6.32352885758841 * u4_t8_h16 + 6.32352885758841 * u4_t9_h16 + 6.05810212282587 * u4_t2_h17 + 6.05810212282587 * u4_t3_h17 + 6.05810212282587 * u4_t5_h17 + 6.05810212282587 * u4_t8_h17 + 6.05810212282587 * u4_t9_h17 + 6.38398539283024 * u4_t2_h18 + 6.38398539283024 * u4_t3_h18 + 6.38398539283024 * u4_t5_h18 + 6.38398539283024 * u4_t8_h18 + 6.38398539283024 * u4_t9_h18 + 5.84587470880221 * u4_t2_h19 + 5.84587470880221 * u4_t3_h19 + 5.84587470880221 * u4_t6_h19 + 5.84587470880221 * u4_t8_h19 + 5.84587470880221 * u4_t9_h19 + 5.12744747603087 * u4_t2_h20 + 5.12744747603087 * u4_t6_h20 + 5.12744747603087 * u4_t9_h20 + 5.00685763661534 * u4_t6_h21 + 5.09822355409956 * u4_t6_h22 + 5.09822355409956 * u4_t7_h22 + 5.56716988184045 * u4_t6_h23 + 5.56716988184045 * u4_t7_h23;
0 <= u4_t1_h1 <= 1;
0 <= u4_t1_h2 <= 1;
0 <= u4_t1_h3 <= 1;
0 <= u4_t1_h4 <= 1;
0 <= u4_t1_h5 <= 1;
0 <= u4_t1_h6 <= 1;
0 <= u4_t1_h7 <= 1;
0 <= u4_t1_h8 <= 1;
u4_t1_h1 + u4_t1_h2 + u4_t1_h3 + u4_t1_h4 + u4_t1_h5 + u4_t1_h6 + u4_t1_h7 + u4_t1_h8 = 1;
0 <= u4_t2_h11 <= 1;
0 <= u4_t2_h12 <= 1;
0 <= u4_t2_h13 <= 1;
0 <= u4_t2_h14 <= 1;
0 <= u4_t2_h15 <= 1;
0 <= u4_t2_h16 <= 1;
0 <= u4_t2_h17 <= 1;
0 <= u4_t2_h18 <= 1;
0 <= u4_t2_h19 <= 1;
0 <= u4_t2_h20 <= 1;
u4_t2_h11 + u4_t2_h12 + u4_t2_h13 + u4_t2_h14 + u4_t2_h15 + u4_t2_h16 + u4_t2_h17 + u4_t2_h18 + u4_t2_h19 + u4_t2_h20 = 2;
0 <= u4_t3_h12 <= 1;
0 <= u4_t3_h13 <= 1;
0 <= u4_t3_h14 <= 1;
0 <= u4_t3_h15 <= 1;
0 <= u4_t3_h16 <= 1;
0 <= u4_t3_h17 <= 1;
0 <= u4_t3_h18 <= 1;
0 <= u4_t3_h19 <= 1;
u4_t3_h12 + u4_t3_h13 + u4_t3_h14 + u4_t3_h15 + u4_t3_h16 + u4_t3_h17 + u4_t3_h18 + u4_t3_h19 = 3;
0 <= u4_t4_h11 <= 1;
0 <= u4_t4_h12 <= 1;
0 <= u4_t4_h13 <= 1;
0 <= u4_t4_h14 <= 1;
0 <= u4_t4_h15 <= 1;
0 <= u4_t4_h16 <= 1;
u4_t4_h11 + u4_t4_h12 + u4_t4_h13 + u4_t4_h14 + u4_t4_h15 + u4_t4_h16 = 3;
0 <= u4_t5_h16 <= 1;
0 <= u4_t5_h17 <= 1;
0 <= u4_t5_h18 <= 1;
u4_t5_h16 + u4_t5_h17 + u4_t5_h18 = 1;
0 <= u4_t6_h19 <= 1;
0 <= u4_t6_h20 <= 1;
0 <= u4_t6_h21 <= 1;
0 <= u4_t6_h22 <= 1;
0 <= u4_t6_h23 <= 1;
u4_t6_h19 + u4_t6_h20 + u4_t6_h21 + u4_t6_h22 + u4_t6_h23 = 3;
0 <= u4_t7_h22 <= 1;
0 <= u4_t7_h23 <= 1;
u4_t7_h22 + u4_t7_h23 = 1;
0 <= u4_t8_h12 <= 1;
0 <= u4_t8_h13 <= 1;
0 <= u4_t8_h14 <= 1;
0 <= u4_t8_h15 <= 1;
0 <= u4_t8_h16 <= 1;
0 <= u4_t8_h17 <= 1;
0 <= u4_t8_h18 <= 1;
0 <= u4_t8_h19 <= 1;
u4_t8_h12 + u4_t8_h13 + u4_t8_h14 + u4_t8_h15 + u4_t8_h16 + u4_t8_h17 + u4_t8_h18 + u4_t8_h19 = 2;
0 <= u4_t9_h8 <= 1;
0 <= u4_t9_h9 <= 1;
0 <= u4_t9_h10 <= 1;
0 <= u4_t9_h11 <= 1;
0 <= u4_t9_h12 <= 1;
0 <= u4_t9_h13 <= 1;
0 <= u4_t9_h14 <= 1;
0 <= u4_t9_h15 <= 1;
0 <= u4_t9_h16 <= 1;
0 <= u4_t9_h17 <= 1;
0 <= u4_t9_h18 <= 1;
0 <= u4_t9_h19 <= 1;
0 <= u4_t9_h20 <= 1;
u4_t9_h8 + u4_t9_h9 + u4_t9_h10 + u4_t9_h11 + u4_t9_h12 + u4_t9_h13 + u4_t9_h14 + u4_t9_h15 + u4_t9_h16 + u4_t9_h17 + u4_t9_h18 + u4_t9_h19 + u4_t9_h20 = 2;
0 <= u4_t10_h4 <= 1;
0 <= u4_t10_h5 <= 1;
0 <= u4_t10_h6 <= 1;
0 <= u4_t10_h7 <= 1;
0 <= u4_t10_h8 <= 1;
0 <= u4_t10_h9 <= 1;
0 <= u4_t10_h10 <= 1;
0 <= u4_t10_h11 <= 1;
0 <= u4_t10_h12 <= 1;
u4_t10_h4 + u4_t10_h5 + u4_t10_h6 + u4_t10_h7 + u4_t10_h8 + u4_t10_h9 + u4_t10_h10 + u4_t10_h11 + u4_t10_h12 = 2;
